p cnf 10 80
9 -9 0
2 -1 0
-8 10 0
-6 3 0
2 5 0
5 -2 0
1 4 0
3 -1 0
8 10 0
3 4 0
9 -10 0
-5 4 0
-7 -5 0
8 -9 0
8 5 0
3 -3 0
1 -10 0
-1 -2 0
1 -1 0
5 -2 0
4 -4 0
8 9 0
-2 7 0
4 -3 0
3 -10 0
9 6 0
9 4 0
-7 -6 0
-4 -9 0
3 -1 0
2 -9 0
2 -1 0
-7 4 0
3 4 0
1 3 0
8 -6 0
-3 -2 0
-7 4 0
-8 -5 0
10 -4 0
8 -3 0
1 -1 0
-1 -2 0
-3 -2 0
8 -3 0
2 -10 0
2 6 0
4 -10 0
-6 7 0
9 5 0
4 -2 0
2 5 0
5 6 0
1 7 0
-8 -3 0
3 -1 0
10 6 0
-8 3 0
8 7 0
4 7 0
1 -6 0
-8 -1 0
9 7 0
8 2 0
-7 -2 0
-3 -1 0
1 -3 0
-5 -3 0
-4 7 0
-10 -2 0
-4 -10 0
1 -10 0
8 -10 0
-6 -9 0
-3 -10 0
-8 -3 0
9 10 0
1 2 0
-6 -9 0
-6 -10 0
